min: 99 x1_1 + 14 x1_2 + 59 x1_3 + 91 x1_4 + 80 x1_5 + 19 x1_6 + 40 x2_1 + 31 x2_2 + 64 x2_3 + 31 x2_4 + 44 x2_5 + 39 x2_6 + 25 x3_1 + 30 x3_2 + 28 x3_3 + 19 x3_4 + 95 x3_5 + 48 x3_6 + 30 x4_1 + 76 x4_2 + 64 x4_3 + 99 x4_4 + 96 x4_5 + 43 x4_6 + 60 x5_1 + 77 x5_2 + 94 x5_3 + 71 x5_4 + 25 x5_5 + 86 x5_6 + 14 x6_1 + 81 x6_2 + 23 x6_3 + 35 x6_4 + 30 x6_5 + 73 x6_6;

x1_1 + x1_2 + x1_3 + x1_4 + x1_5 + x1_6 = 4919;
x2_1 + x2_2 + x2_3 + x2_4 + x2_5 + x2_6 = 4665;
x3_1 + x3_2 + x3_3 + x3_4 + x3_5 + x3_6 = 3149;
x4_1 + x4_2 + x4_3 + x4_4 + x4_5 + x4_6 = 244;
x5_1 + x5_2 + x5_3 + x5_4 + x5_5 + x5_6 = 3615;
x6_1 + x6_2 + x6_3 + x6_4 + x6_5 + x6_6 = 1061;

x1_1 + x2_1 + x3_1 + x4_1 + x5_1 + x6_1 = 4551;
x1_2 + x2_2 + x3_2 + x4_2 + x5_2 + x6_2 = 1005;
x1_3 + x2_3 + x3_3 + x4_3 + x5_3 + x6_3 = 2982;
x1_4 + x2_4 + x3_4 + x4_4 + x5_4 + x6_4 = 4230;
x1_5 + x2_5 + x3_5 + x4_5 + x5_5 + x6_5 = 2558;
x1_6 + x2_6 + x3_6 + x4_6 + x5_6 + x6_6 = 3107;

int x1_1, x1_2, x1_3, x1_4, x1_5, x1_6, x2_1, x2_2, x2_3, x2_4, x2_5, x2_6, x3_1, x3_2, x3_3, x3_4, x3_5, x3_6, x4_1, x4_2, x4_3, x4_4, x4_5, x4_6, x5_1, x5_2, x5_3, x5_4, x5_5, x5_6, x6_1, x6_2, x6_3, x6_4, x6_5, x6_6;